RT is False
Default write of storage_offers_DA.csv just to have a file (but constraint should be inactive)
Reading model...
...model read.
creating competitive generators file...
...competitive generators recorded.
Loading data...
.. day-ahead data with real-time VRE data read.
Compiling instance...
...instance created.
Creating Offer Mitigation (model will solve as dispatch if TRUE)...
...storage offer mitigation file created
Converting model to MPEC...
...converted
NOTE: initial MIP solve with only storage competitive to get feasible solution
Solving...

Welcome to IBM(R) ILOG(R) CPLEX(R) Interactive Optimizer 12.9.0.0
  with Simplex, Mixed Integer & Barrier Optimizers
5725-A06 5725-A29 5724-Y48 5724-Y49 5724-Y54 5724-Y55 5655-Y21
Copyright IBM Corp. 1988, 2019.  All Rights Reserved.

Type 'help' for a list of available commands.
Type 'help' followed by a command name for more
information on commands.

CPLEX> Logfile 'cplex.log' closed.
Logfile 'C:\Users\llavin\Desktop\test826\logs\tmpwnhosoxt.cplex.log' open.
CPLEX> New value for parallel optimization mode: -1
CPLEX> New value for mixed integer optimality gap tolerance: 0.1
CPLEX> New value for feasibility tolerance: 1e-09
CPLEX> New value for deterministic time limit in ticks: 50000
CPLEX> Problem 'C:\Users\llavin\Desktop\test826\logs\tmppb364ill.pyomo.lp' read.
Read time = 0.23 sec. (14.72 ticks)
CPLEX> Problem name         : C:\Users\llavin\Desktop\test826\logs\tmppb364ill.pyomo.lp
Objective sense      : Maximize
Variables            :   53805  [Nneg: 1,  Box: 22000,  Free: 4464,
                                 Binary: 27340]
Objective nonzeros   :    9029
Linear constraints   :  123205  [Less: 41346,  Greater: 59096,  Equal: 22763]
  Nonzeros           :  291753
  RHS nonzeros       :   67495

Variables            : Min LB: -5000.000        Max UB: 1000000.       
Objective nonzeros   : Min   : 0.07500000       Max   : 3000.000       
Linear constraints   :
  Nonzeros           : Min   : 0.07500000       Max   : 1000000.       
  RHS nonzeros       : Min   : 0.07500000       Max   : 1000000.       
CPLEX> CPXPARAM_Parallel                                -1
CPXPARAM_Simplex_Tolerances_Feasibility          1.0000000000000001e-09
CPXPARAM_DetTimeLimit                            50000
CPXPARAM_MIP_Tolerances_MIPGap                   0.10000000000000001
Tried aggregator 3 times.
MIP Presolve eliminated 88704 rows and 19026 columns.
MIP Presolve added 3372 rows and 0 columns.
MIP Presolve modified 24858 coefficients.
Aggregator did 12974 substitutions.
Reduced MIP has 24899 rows, 21249 columns, and 70908 nonzeros.
Reduced MIP has 8399 binaries, 0 generals, 0 SOSs, and 0 indicators.
Presolve time = 0.28 sec. (167.92 ticks)
Probing fixed 370 vars, tightened 4120 bounds.
Probing time = 0.06 sec. (18.90 ticks)
Tried aggregator 2 times.
MIP Presolve eliminated 834 rows and 742 columns.
MIP Presolve modified 3035 coefficients.
Aggregator did 36 substitutions.
Reduced MIP has 24029 rows, 20471 columns, and 68390 nonzeros.
Reduced MIP has 8028 binaries, 0 generals, 0 SOSs, and 0 indicators.
Presolve time = 0.11 sec. (87.51 ticks)
Probing fixed 0 vars, tightened 254 bounds.
Probing time = 0.14 sec. (22.73 ticks)
Clique table members: 44314.
MIP emphasis: balance optimality and feasibility.
MIP search method: dynamic search.
Parallel mode: opportunistic, using up to 32 threads.
Root relaxation solution time = 0.42 sec. (648.71 ticks)

        Nodes                                         Cuts/
   Node  Left     Objective  IInf  Best Integer    Best Bound    ItCnt     Gap

      0     0     3980.7076    96                   3980.7076     5572         
*     0     0      integral     0     3980.7076     3980.7076     5572    0.00%
Elapsed time = 1.94 sec. (1568.46 ticks, tree = 0.01 MB, solutions = 1)

Root node processing (before b&c):
  Real time             =    1.95 sec. (1570.41 ticks)
Parallel b&c, 32 threads:
  Real time             =    0.00 sec. (0.00 ticks)
  Sync time (average)   =    0.00 sec.
  Wait time (average)   =    0.00 sec.
                          ------------
Total (root+branch&cut) =    1.95 sec. (1570.41 ticks)

Solution pool: 1 solution saved.

MIP - Integer optimal solution:  Objective =  3.9807076410e+03
Solution time =    1.97 sec.  Iterations = 5572  Nodes = 0
Deterministic time = 1570.56 ticks  (797.65 ticks/sec)

CPLEX> Incumbent solution written to file 'C:\Users\llavin\Desktop\test826\logs\tmp6oqxnrcr.cplex.sol'.
CPLEX> NOTE: no warmstart specified for MIP iteration, default behavior is true
NOTE: resolving with all competitive generators using storage-only solution to warmstart
Solving...

Welcome to IBM(R) ILOG(R) CPLEX(R) Interactive Optimizer 12.9.0.0
  with Simplex, Mixed Integer & Barrier Optimizers
5725-A06 5725-A29 5724-Y48 5724-Y49 5724-Y54 5724-Y55 5655-Y21
Copyright IBM Corp. 1988, 2019.  All Rights Reserved.

Type 'help' for a list of available commands.
Type 'help' followed by a command name for more
information on commands.

CPLEX> Logfile 'cplex.log' closed.
Logfile 'C:\Users\llavin\Desktop\test826\logs\tmppu19sc7k.cplex.log' open.
CPLEX> New value for parallel optimization mode: -1
CPLEX> New value for mixed integer optimality gap tolerance: 0.1
CPLEX> New value for feasibility tolerance: 1e-09
CPLEX> New value for deterministic time limit in ticks: 50000
CPLEX> Problem 'C:\Users\llavin\Desktop\test826\logs\tmptfwykjrz.pyomo.lp' read.
Read time = 0.23 sec. (14.74 ticks)
CPLEX> MIP start file 'C:\Users\llavin\Desktop\test826\logs\tmpbz910vp9.cplex.mst' read.
CPLEX> Problem name         : C:\Users\llavin\Desktop\test826\logs\tmptfwykjrz.pyomo.lp
Objective sense      : Maximize
Variables            :   54525  [Nneg: 1,  Box: 22720,  Free: 4464,
                                 Binary: 27340]
Objective nonzeros   :    9725
Linear constraints   :  123205  [Less: 41346,  Greater: 59096,  Equal: 22763]
  Nonzeros           :  291753
  RHS nonzeros       :   67495

Variables            : Min LB: -5000.000        Max UB: 1000000.       
Objective nonzeros   : Min   : 0.07500000       Max   : 3000.000       
Linear constraints   :
  Nonzeros           : Min   : 0.07500000       Max   : 1000000.       
  RHS nonzeros       : Min   : 0.07500000       Max   : 1000000.       
CPLEX> CPXPARAM_Parallel                                -1
CPXPARAM_Simplex_Tolerances_Feasibility          1.0000000000000001e-09
CPXPARAM_DetTimeLimit                            50000
CPXPARAM_MIP_Tolerances_MIPGap                   0.10000000000000001
Warning:  No solution found from 1 MIP starts.
Retaining values of one MIP start for possible repair.
Tried aggregator 3 times.
MIP Presolve eliminated 88704 rows and 19746 columns.
MIP Presolve added 3372 rows and 0 columns.
MIP Presolve modified 24858 coefficients.
Aggregator did 12974 substitutions.
Reduced MIP has 24899 rows, 21249 columns, and 70908 nonzeros.
Reduced MIP has 8399 binaries, 0 generals, 0 SOSs, and 0 indicators.
Presolve time = 0.27 sec. (168.28 ticks)
Probing fixed 370 vars, tightened 4120 bounds.
Probing time = 0.06 sec. (18.90 ticks)
Tried aggregator 2 times.
MIP Presolve eliminated 834 rows and 742 columns.
MIP Presolve modified 3035 coefficients.
Aggregator did 36 substitutions.
Reduced MIP has 24029 rows, 20471 columns, and 68390 nonzeros.
Reduced MIP has 8028 binaries, 0 generals, 0 SOSs, and 0 indicators.
Presolve time = 0.09 sec. (87.51 ticks)
Probing fixed 0 vars, tightened 254 bounds.
Probing time = 0.14 sec. (22.73 ticks)
Clique table members: 44314.
MIP emphasis: balance optimality and feasibility.
MIP search method: dynamic search.
Parallel mode: opportunistic, using up to 32 threads.
Root relaxation solution time = 0.50 sec. (700.49 ticks)

        Nodes                                         Cuts/
   Node  Left     Objective  IInf  Best Integer    Best Bound    ItCnt     Gap

      0     0    99085.1749   226                  99085.1749     6290         
      0     0    97688.3140   112                    Cuts: 99     6375         
      0     0    97619.7759   107                    Cuts: 25     6388         
      0     0    97619.7759    91                    Cuts: 38     6406         
      0     0    97619.7759    91                     Cuts: 7     6408         
      0     0    97619.7759    91                     Cuts: 7     6410         
Repair heuristic found nothing.
      0     2    90437.6781    85                     Cuts: 8     6410         
Elapsed time = 7.36 sec. (4012.26 ticks, tree = 0.02 MB, solutions = 2)
*     1+   38                        60696.9099    90431.9862            48.99%
    531    52    89603.9385    91    60696.9099    90424.2353     6772   48.98%
   1137   377    86164.1114    60    60696.9099    90424.2353     9527   48.98%
   1655  1486    86220.6315    40    60696.9099    90424.2353    18076   48.98%
   2211  1282        cutoff          60696.9099    90424.2353    16660   48.98%
*  2392  1311      integral     0    61851.0075    90424.2353    16859   46.20%
   3097  1965    62373.9292     5    62084.3946    90424.2353    21987   45.65%
   3781  2389    62825.9055     5    62084.3946    90424.2353    28438   45.65%
   4559  2810    62888.6561     5    62084.3946    90424.2353    33540   45.65%
   6410  4695    63939.2754    29    62084.3946    73171.7762    56541   17.86%
Elapsed time = 26.30 sec. (10641.17 ticks, tree = 41.30 MB, solutions = 19)

Clique cuts applied:  2
Cover cuts applied:  2
Implied bound cuts applied:  17
Flow cuts applied:  117
Mixed integer rounding cuts applied:  15
Gomory fractional cuts applied:  9

Root node processing (before b&c):
  Real time             =    5.30 sec. (3962.04 ticks)
Parallel b&c, 32 threads:
  Real time             =   21.09 sec. (6688.67 ticks)
  Sync time (average)   =    1.15 sec.
  Wait time (average)   =    0.19 sec.
                          ------------
Total (root+branch&cut) =   26.39 sec. (10650.71 ticks)

Solution pool: 19 solutions saved.

MIP - Integer optimal, tolerance (0.1/1e-06):  Objective =  6.2084394620e+04
Current MIP best bound =  6.3939275442e+04 (gap = 1854.88, 2.99%)
Solution time =   26.41 sec.  Iterations = 56541  Nodes = 6411 (4695)
Deterministic time = 10650.87 ticks  (403.35 ticks/sec)

CPLEX> Incumbent solution written to file 'C:\Users\llavin\Desktop\test826\logs\tmpu2y7pfpx.cplex.sol'.
CPLEX> Exporting results... 
1854.88
